(declare-fun $prop_all$3 () Bool)
(declare-fun $prop1$3 () Bool)
(declare-fun $prop3$3 () Bool)
(declare-fun $prop4$3 () Bool)
(declare-fun $prop2$3 () Bool)
(declare-fun $state$3 () Int)
(declare-fun $bias$3 () Int)
(declare-fun $state$0 () Int)
(declare-fun $bias_max$3 () Bool)
(declare-fun $bias$0 () Int)
(declare-fun $bias_max$0 () Bool)
(declare-fun $x$1 () Bool)

(assert (let ((a!1 (and (not $x$1)
                (not (<= 3 $bias$0))
                (not (<= $bias$0 (- 1)))
                (not $bias_max$0)
                (or (not (= $state$0 0)) (not $x$1))
                (or (not (= $state$0 0)) $x$1)))
      (a!2 (or $bias_max$0
               (>= (+ (- 1) $bias$0) 2)
               (<= (+ (- 1) $bias$0) (- 0 2))))
      (a!3 (or (= (+ (- 1) $bias$0) 0) (not (= 3 0))))
      (a!4 (or (not (and (= $state$0 0) $x$1)) (= 3 2)))
      (a!5 (or (not (and (= $state$0 0) (not $x$1))) (= 3 1)))
      (a!6 (and (not $x$1)
                (not (<= 3 $bias$0))
                (not (<= $bias$0 (- 1)))
                (not $bias_max$0)
                (or (not (= $state$0 0)) (not $x$1))))
      (a!7 (or (= (+ (- 1) $bias$0) 0) (not (= 1 0))))
      (a!8 (or (not (and (= $state$0 0) $x$1)) (= 1 2)))
      (a!11 (and $x$1
                 (not (<= 1 $bias$0))
                 (not (<= $bias$0 (- 3)))
                 (not $bias_max$0)
                 (or (not (= $state$0 0)) $x$1)))
      (a!12 (or $bias_max$0 (>= (+ 1 $bias$0) 2) (<= (+ 1 $bias$0) (- 0 2))))
      (a!13 (or (= (+ 1 $bias$0) 0) (not (= 2 0))))
      (a!14 (or (not (and (= $state$0 0) (not $x$1))) (= 2 1))))
(let ((a!9 (= $prop_all$3 (and (or (not a!2) (= 1 3)) true a!7 a!8)))
      (a!15 (= $prop_all$3 (and (or (not a!12) (= 2 3)) a!14 true a!13))))
(let ((a!10 (and (= $bias$3 (+ (- 1) $bias$0))
                 (= $bias_max$3 a!2)
                 (= $prop1$3 a!7)
                 (= $state$3 1)
                 (= $prop2$3 a!8)
                 (= $prop3$3 true)
                 (= $prop4$3 (or (not a!2) (= 1 3)))
                 a!9))
      (a!16 (and (= $bias$3 (+ 1 $bias$0))
                 (= $bias_max$3 a!12)
                 (= $prop1$3 a!13)
                 (= $state$3 2)
                 (= $prop2$3 true)
                 (= $prop3$3 a!14)
                 (= $prop4$3 (or (not a!12) (= 2 3)))
                 a!15)))
  (ite a!1
       (and (= $bias$3 (+ (- 1) $bias$0))
            (= $bias_max$3 a!2)
            (= $prop1$3 a!3)
            (= $state$3 3)
            (= $prop2$3 a!4)
            (= $prop3$3 a!5)
            (= $prop4$3 true)
            (= $prop_all$3 (and true a!5 a!3 a!4)))
       (ite a!6 a!10 (ite a!11 a!16 true)))))))
(check-sat)
